4
0 10 15 20
5 0 9 10
6 13 0 12
8 8 9 0

5
0 3 4 2 7
3 0 4 6 3
4 4 0 5 8
2 6 5 0 6
7 3 8 6 0

10
0 1 2 3 4 5 6 7 8 9
1 0 9 8 7 6 5 4 3 2
2 1 0 9 8 7 6 5 4 3
3 2 1 0 9 8 7 6 5 4
4 3 2 1 0 9 8 7 6 5
5 4 3 2 1 0 9 8 7 6
6 5 4 3 2 1 0 9 8 7
7 6 5 4 3 2 1 0 9 8
8 7 6 5 4 3 2 1 0 9
9 8 7 6 5 4 3 2 1 0

12
0 1 2 3 4 5 6 7 8 9 10 11
1 0 11 10 9 8 7 6 5 4 3 2
2 1 0 11 10 9 8 7 6 5 4 3
3 2 1 0 11 10 9 8 7 6 5 4
4 3 2 1 0 11 10 9 8 7 6 5
5 4 3 2 1 0 11 10 9 8 7 6
6 5 4 3 2 1 0 10 11 9 8 7
7 6 5 4 3 2 1 0 11 10 9 8
8 7 6 5 4 3 2 1 0 11 10 9
9 8 7 6 5 4 3 2 1 0 11 10
10 9 8 7 6 5 4 3 2 1 0 11
11 10 9 8 7 6 5 4 3 2 1 0

13
0 1 2 3 4 5 6 7 8 9 10 11 12
1 0 12 11 10 9 8 7 6 5 4 3 2
2 1 0 12 11 10 9 8 7 6 5 4 3
3 2 1 0 12 11 10 9 8 7 6 5 4
4 3 2 1 0 12 11 10 9 8 7 6 5
5 4 3 2 1 0 12 11 10 9 8 7 6
6 5 4 3 2 1 0 12 11 10 9 8 7
7 6 5 4 3 2 1 0 12 11 10 9 8
8 7 6 5 4 3 2 1 0 12 11 10 9
9 8 7 6 5 4 3 2 1 0 12 11 10
10 9 8 7 6 5 4 3 2 1 0 12 11
11 10 9 8 7 6 5 4 3 2 1 0 12
12 11 10 9 8 7 6 5 4 3 2 1 0